interdiction/MCDM/NO_CORR/GEN_FROM_60/13_ITEMS_1000_GEN/K5013W10.KNP.mps
NAME          BLANK   
ROWS
 N  OBJROW
 L  R0000000
COLUMNS
    C0000000  OBJROW     -316.         R0000000  57.         
    C0000001  OBJROW     -722.         R0000000  707.        
    C0000002  OBJROW     -461.         R0000000  495.        
    C0000003  OBJROW     -876.         R0000000  923.        
    C0000004  OBJROW     -158.         R0000000  942.        
    C0000005  OBJROW     -803.         R0000000  66.         
    C0000006  OBJROW     -189.         R0000000  705.        
    C0000007  OBJROW     -870.         R0000000  640.        
    C0000008  OBJROW     -461.         R0000000  634.        
    C0000009  OBJROW     -771.         R0000000  290.        
    C0000010  OBJROW     -133.         R0000000  584.        
    C0000011  OBJROW     -392.         R0000000  939.        
    C0000012  OBJROW     -762.         R0000000  241.        
RHS
    RHS       R0000000  15551.      
BOUNDS
 BV BOUND     C0000000  1.          
 BV BOUND     C0000001  1.          
 BV BOUND     C0000002  1.          
 BV BOUND     C0000003  1.          
 BV BOUND     C0000004  1.          
 BV BOUND     C0000005  1.          
 BV BOUND     C0000006  1.          
 BV BOUND     C0000007  1.          
 BV BOUND     C0000008  1.          
 BV BOUND     C0000009  1.          
 BV BOUND     C0000010  1.          
 BV BOUND     C0000011  1.          
 BV BOUND     C0000012  1.          
ENDATA
