interdiction/MCDM/NO_CORR/GEN_FROM_60/13_ITEMS_1000_GEN/K5013W10.KNP.txt
N 13
M 14
LC 13
LC 14
LC 15
LC 16
LC 17
LC 18
LC 19
LC 20
LC 21
LC 22
LC 23
LC 24
LC 25
LR 1
LR 2
LR 3
LR 4
LR 5
LR 6
LR 7
LR 8
LR 9
LR 10
LR 11
LR 12
LR 13
LR 14
LO -316
LO -722
LO -461
LO -876
LO -158
LO -803
LO -189
LO -870
LO -461
LO -771
LO -133
LO -392
LO -762
OS 1
IC 36
IC 76
IC 653
IC 632
IC 553
IC 699
IC 463
IC 596
IC 509
IC 644
IC 991
IC 197
IC 221
IB 3135
